layers = 3;
width = [8, 8, 2];
nodes = 18;
edges = 16;
start = [ 9,  1, 12,  8,  9,  5, 13,  6,  5,  5,  8,  6, 12,  4,  6,  7];
end =   [17, 15, 17, 10, 18, 10, 17, 15, 13, 15, 16, 12, 18, 14, 10, 15];
